Minimize
    48 x0 + 129 x1 + 136 x2 + 198 x3 + 212 x4 + 235 x5
Subject To
    c0: -120 x0 - 13 x1 - 1 x2 + 40 x3 - 94 x4 + 111 x5 >= 97
    c1: -13 x0 + 48 x1 + 8 x2 - 67 x3 + 15 x4 + 12 x5 >= 68
    c2: 127 x0 + 122 x1 - 79 x2 + 15 x3 + 91 x4 - 117 x5 >= -74
    c3: 10 x0 + 117 x1 + 39 x2 - 43 x3 + 73 x4 + 39 x5 >= 195
    c4: 12 x0 - 124 x1 - 87 x2 + 71 x3 - 58 x4 + 13 x5 >= -198
    c5: 82 x0 - 42 x1 - 74 x2 + 71 x3 - 99 x4 - 82 x5 >= -198
    c6: 34 x0 + 61 x1 + 124 x2 - 4 x3 - 127 x4 + 63 x5 >= 248
    c7: -53 x0 + 108 x1 + 67 x2 + 13 x3 + 119 x4 + 45 x5 >= 220
    c8: -39 x0 - 70 x1 + 107 x2 + 88 x3 + 114 x4 + 8 x5 >= 45
    c9: 35 x0 + 17 x1 - 64 x2 - 116 x3 - 117 x4 - 100 x5 >= -147
    c10: -53 x0 + 14 x1 - 90 x2 + 4 x3 - 108 x4 - 33 x5 >= -109
    c11: 56 x0 - 46 x1 - 90 x2 + 38 x3 - 104 x4 - 58 x5 >= -194
    c12: 119 x0 + 9 x1 - 94 x2 - 36 x3 + 20 x4 - 11 x5 >= -96
    c13: 56 x0 - 109 x1 - 73 x2 + 109 x3 + 49 x4 + 18 x5 >= -164
    c14: -37 x0 - 58 x1 - 15 x2 + 72 x3 + 111 x4 - 73 x5 >= -146
    c15: 53 x0 + 53 x1 + 105 x2 + 77 x3 + 57 x4 - 18 x5 >= 140
    c16: 61 x0 - 66 x1 + 46 x2 - 68 x3 + 44 x4 + 42 x5 >= 22
    c17: 101 x0 - 126 x1 - 44 x2 + 119 x3 - 13 x4 + 85 x5 >= -85
    c18: -4 x0 + 108 x1 - 53 x2 - 14 x3 - 13 x4 + 51 x5 >= 106
    c19: 84 x0 + 29 x1 + 19 x2 - 98 x3 + 38 x4 + 6 x5 >= 54
    c20: 125 x0 + 127 x1 - 103 x2 - 54 x3 + 101 x4 + 12 x5 >= 36
    c21: -90 x0 - 105 x1 - 126 x2 - 34 x3 + 11 x4 - 87 x5 >= -318
    c22: -71 x0 - 62 x1 + 62 x2 + 56 x3 + 99 x4 + 113 x5 >= 113
    c23: -41 x0 + 14 x1 - 25 x2 + 88 x3 - 128 x4 + 75 x5 >= 64
    c24: 57 x0 - 21 x1 + 60 x2 + 122 x3 - 64 x4 + 121 x5 >= 160
    c25: -4 x0 + 7 x1 + 36 x2 - 16 x3 - 124 x4 + 85 x5 >= 128
    c26: 45 x0 + 115 x1 + 124 x2 - 115 x3 + 127 x4 - 72 x5 >= 167
    c27: 77 x0 + 124 x1 - 36 x2 + 109 x3 + 47 x4 - 119 x5 >= -31
    c28: 105 x0 - 29 x1 + 52 x2 - 127 x3 - 106 x4 + 70 x5 >= 93
    c29: -44 x0 - 69 x1 + 26 x2 - 78 x3 + 93 x4 + 103 x5 >= 60
    c30: -11 x0 - 33 x1 + 112 x2 + 3 x3 - 47 x4 + 125 x5 >= 204
    c31: -53 x0 - 16 x1 - 51 x2 - 37 x3 - 2 x4 - 103 x5 >= -170
    c32: -17 x0 + 42 x1 + 21 x2 - 108 x3 + 120 x4 - 79 x5 >= -16
    c33: 66 x0 + 12 x1 + 44 x2 + 108 x3 - 74 x4 + 68 x5 >= 124
    c34: 3 x0 - 62 x1 - 7 x2 - 61 x3 + 121 x4 - 125 x5 >= -194
    c35: -52 x0 - 127 x1 + 90 x2 - 31 x3 + 120 x4 + 77 x5 >= 40
    c36: -125 x0 - 106 x1 - 92 x2 - 42 x3 - 33 x4 - 99 x5 >= -297
    c37: 59 x0 + 51 x1 - 76 x2 + 74 x3 + 104 x4 - 51 x5 >= -76
    c38: 120 x0 + 57 x1 + 88 x2 - 34 x3 - 91 x4 + 109 x5 >= 254
    c39: 80 x0 + 25 x1 + 123 x2 - 101 x3 + 72 x4 - 63 x5 >= 85
    c40: -57 x0 - 38 x1 + 54 x2 + 14 x3 - 23 x4 - 124 x5 >= -108
    c41: 31 x0 + 83 x1 + 72 x2 + 5 x3 + 105 x4 + 51 x5 >= 206
    c42: 69 x0 - 23 x1 + 68 x2 + 8 x3 + 39 x4 + 57 x5 >= 102
    c43: -16 x0 + 78 x1 + 20 x2 + 72 x3 - 37 x4 + 127 x5 >= 225
    c44: 111 x0 + 80 x1 - 66 x2 - 46 x3 - 86 x4 + 93 x5 >= 107
    c45: 65 x0 + 115 x1 + 37 x2 - 114 x3 + 42 x4 + 113 x5 >= 265
    c46: -110 x0 - 116 x1 + 91 x2 - 58 x3 + 67 x4 + 34 x5 >= 9
    c47: 75 x0 - 68 x1 - 109 x2 - 28 x3 - 95 x4 - 4 x5 >= -181
    c48: 125 x0 - 43 x1 + 36 x2 - 124 x3 - 9 x4 - 91 x5 >= -98
    c49: -123 x0 + 88 x1 + 106 x2 + 91 x3 + 27 x4 - 116 x5 >= 78
    c50: -52 x0 - 94 x1 + 9 x2 + 119 x3 - 91 x4 - 60 x5 >= -145
    c51: -67 x0 - 91 x1 - 95 x2 + 8 x3 - 13 x4 + 67 x5 >= -119
    c52: 98 x0 - 14 x1 + 15 x2 + 11 x3 - 109 x4 + 91 x5 >= 92
    c53: -107 x0 - 2 x1 + 63 x2 + 110 x3 + 47 x4 - 3 x5 >= 58
    c54: -110 x0 - 73 x1 + 21 x2 + 117 x3 - 13 x4 - 122 x5 >= -174
    c55: -1 x0 - 9 x1 - 72 x2 + 54 x3 - 7 x4 - 57 x5 >= -138
    c56: -88 x0 - 117 x1 - 94 x2 - 88 x3 + 71 x4 + 25 x5 >= -186
    c57: 41 x0 - 76 x1 + 58 x2 + 62 x3 - 112 x4 - 115 x5 >= -133
    c58: -81 x0 - 121 x1 + 110 x2 - 88 x3 - 45 x4 - 50 x5 >= -61
    c59: 25 x0 + 88 x1 + 73 x2 + 110 x3 + 69 x4 + 124 x5 >= 285
    c60: -75 x0 + 110 x1 + 44 x2 - 106 x3 + 98 x4 - 118 x5 >= 36
    c61: 87 x0 - 24 x1 - 106 x2 - 43 x3 - 102 x4 + 70 x5 >= -60
    c62: 49 x0 + 101 x1 + 109 x2 + 60 x3 - 89 x4 + 0 x5 >= 210
    c63: 25 x0 - 7 x1 - 72 x2 - 46 x3 + 37 x4 - 84 x5 >= -163
Binary
    x0 x1 x2 x3 x4 x5
End
